39	69	8	21	20	0	0	3	0	0	2	0	0	0	3	4	3	0	2	0	0	4	0	4	4	4	4	2	0	0	3	0	3	0	4
102	56	28	21	25	3	4	3	2	2	3	2	3	4	2	2	0	2	4	3	4	0	4	2	0	0	3	4	2	3	3	2	0	4	4
93	77	62	118	63	54	56	63	48	61	72	63	52	53	58	131	119	121	110	132	132	103	112	109	109	58	62	62	65	49	62	64	59	61	76
34	11	48	60	105	55	53	39	38	60	44	56	62	43	56	55	47	74	69	73	61	58	58	55	57	102	117	105	116	112	106	102	100	100	118
9	14	13	12	11	12	8	14	12	10	8	12	9	11	8	9	11	10	9	11	14	13	15	11	12	12	9	14	14	11
12	16	16	15	14	14	11	16	14	12	11	14	12	14	10	12	14	12	12	14	16	16	18	13	14	14	11	17	16	14
